50

92 3 278
89 20 269
87 15 261
84 9 296
82 9 289
82 22 300
81 23 264
75 9 249
73 13 288
71 11 283
67 14 207
67 4 215
63 3 274
59 18 243
57 10 186
56 5 240
52 1 234
49 9 251
48 15 250
47 10 256
46 4 183
41 2 182
39 1 282
38 7 294
36 3 253
35 7 282
34 4 170
34 9 278
30 8 248
29 5 219
26 4 283
21 3 274
20 3 280
19 2 216
18 5 228
15 3 168
15 1 79
13 3 282
11 1 297
10 1 181
10 3 102
10 1 129
9 2 182
8 3 258
8 2 87
7 1 25
6 2 155
6 1 233
6 2 246
3 1 191
